p wcnf 3000 300 1
1 1 0
1 2 0
1 3 0
1 4 0
1 5 0
1 6 0
1 7 0
1 8 0
1 9 0
1 10 0
1 11 0
1 12 0
1 13 0
1 14 0
1 15 0
1 1 1 1 1 1 1 1 1 1 1 1 1 1 2 0
1 2 2 2 2 2 2 2 2 2 2 2 2 2 2 0
1 2 2 2 2 2 2 2 2 2 2 2 2 2 2 0
1 3 3 3 3 3 3 3 3 3 3 3 3 3 3 0
1 3 3 3 3 3 3 3 3 3 3 3 3 3 3 0
1 3 3 3 3 3 3 3 3 3 3 3 3 3 4 0
1 4 4 4 4 4 4 4 4 4 4 4 4 4 4 0
1 4 4 4 4 4 4 4 4 4 4 4 4 4 4 0
1 4 4 4 5 5 5 5 5 5 5 5 5 5 5 0
1 5 5 5 5 6 6 6 6 6 6 6 6 6 6 0
1 6 6 6 6 6 6 6 6 6 6 6 6 6 6 0
1 6 6 6 6 6 6 6 7 7 7 7 7 7 7 0
1 7 7 7 7 7 7 7 7 7 7 7 7 7 7 0
1 7 7 7 7 7 7 8 8 8 8 8 8 8 8 0
1 8 8 8 8 8 8 8 8 8 8 8 8 8 8 0
1 8 8 9 9 9 9 9 9 9 9 9 9 9 9 0
1 9 9 9 9 9 9 9 9 9 9 9 9 9 9 0
1 9 9 9 9 9 9 9 9 9 9 9 9 10 10 0
1 10 10 10 10 10 10 10 10 10 10 10 10 10 10 0
1 10 10 10 10 10 10 10 10 10 10 10 10 10 10 0
1 11 11 11 11 11 11 11 11 11 11 11 11 11 11 0
1 11 11 11 11 11 11 11 11 11 11 11 11 11 11 0
1 11 11 12 12 12 12 12 12 12 12 12 12 12 12 0
1 12 12 12 12 12 12 12 12 12 12 12 12 12 13 0
1 13 13 13 13 13 13 13 13 13 13 13 13 13 13 0
1 13 13 13 13 13 13 13 13 13 13 13 13 13 13 0
1 14 14 14 14 14 14 14 14 14 14 14 14 14 14 0
1 14 14 14 14 14 14 14 14 14 14 14 15 15 15 0
1 15 15 15 15 15 15 15 15 15 15 15 15 15 15 0
1 15 15 15 15 15 15 15 15 15 15 15 15 15 15 0
1 16 16 16 16 16 16 16 16 16 16 16 16 16 16 0
1 16 16 16 16 16 16 16 16 16 16 16 16 16 16 0
1 16 16 16 16 16 16 16 16 16 16 16 16 16 16 0
1 16 16 17 17 17 17 17 17 17 17 17 17 17 17 0
1 17 17 17 17 17 17 17 17 17 17 17 17 17 17 0
1 17 17 17 17 17 17 17 17 17 17 18 18 18 18 0
1 18 18 18 18 18 18 18 18 18 18 18 18 18 18 0
1 18 18 18 18 18 18 18 18 19 19 19 19 19 19 0
1 19 19 19 19 19 19 19 19 19 19 19 19 19 19 0
1 19 19 19 19 19 19 19 19 19 19 20 20 20 20 0
1 20 20 20 20 20 20 20 20 20 20 20 20 20 20 0
1 20 20 20 20 20 20 20 20 20 20 20 20 21 21 0
1 21 21 21 21 21 21 21 21 21 21 21 21 21 21 0
1 21 21 21 21 21 21 21 21 21 21 21 21 21 21 0
1 22 22 22 22 22 22 22 22 22 22 22 22 22 22 0
1 22 22 22 22 22 22 22 22 23 23 23 23 23 23 0
1 23 23 23 23 23 23 23 23 23 23 23 23 23 23 0
1 23 23 23 23 24 24 24 24 24 24 24 24 24 24 0
1 24 24 24 24 24 24 24 24 24 24 24 24 24 24 0
1 24 24 24 24 24 24 25 25 25 25 25 25 25 25 0
1 25 25 25 25 25 25 25 25 25 25 25 25 25 25 0
1 25 25 25 25 25 26 26 26 26 26 26 26 26 26 0
1 26 26 26 26 26 26 26 26 26 26 26 26 26 26 0
1 26 26 26 26 26 26 26 26 26 26 26 26 26 26 0
1 27 27 27 27 27 27 27 27 27 27 27 27 27 27 0
1 27 27 27 27 27 27 27 27 27 27 27 27 28 28 0
1 28 28 28 28 28 28 28 28 28 28 28 28 28 28 0
1 28 28 28 28 28 28 28 28 28 28 28 28 28 28 0
1 28 28 29 29 29 29 29 29 29 29 29 29 29 29 0
1 29 29 29 29 29 29 29 29 29 29 29 29 29 29 0
1 29 29 29 30 30 30 30 30 30 30 30 30 30 30 0
1 30 30 30 30 30 30 30 30 30 30 30 30 30 30 0
1 31 31 31 31 31 31 31 31 31 31 31 31 31 31 0
1 31 31 31 31 31 31 31 31 31 31 31 31 31 31 0
1 31 31 31 31 31 31 31 31 32 32 32 32 32 32 0
1 32 32 32 32 32 32 32 32 32 32 32 32 32 32 0
1 32 33 33 33 33 33 33 33 33 33 33 33 33 33 0
1 33 33 33 33 33 33 33 33 33 33 33 33 33 33 0
1 34 34 34 34 34 34 34 34 34 34 34 34 34 34 0
1 34 34 34 34 34 34 34 34 34 34 35 35 35 35 0
1 35 35 35 35 35 35 35 35 35 35 35 35 35 35 0
1 35 35 35 35 35 35 35 35 35 35 36 36 36 36 0
1 36 36 36 36 36 36 36 36 36 36 36 36 36 36 0
1 36 36 36 36 36 36 36 36 36 37 37 37 37 37 0
1 37 37 37 37 37 37 37 37 37 37 37 37 37 37 0
1 38 38 38 38 38 38 38 38 38 38 38 38 38 38 0
1 38 38 38 38 38 38 38 38 38 38 38 38 38 38 0
1 38 39 39 39 39 39 39 39 39 39 39 39 39 39 0
1 39 39 39 39 39 39 39 39 39 39 39 39 39 39 0
1 39 39 39 39 39 39 39 39 40 40 40 40 40 40 0
1 40 40 40 40 40 40 40 40 40 40 40 40 40 40 0
1 40 40 40 41 41 41 41 41 41 41 41 41 41 41 0
1 41 41 41 41 41 41 42 42 42 42 42 42 42 42 0
1 42 42 42 42 42 42 42 42 42 42 42 42 42 42 0
1 42 42 42 42 42 42 42 42 42 42 43 43 43 43 0
1 43 43 43 43 43 43 43 43 43 43 43 43 43 43 0
1 43 43 43 43 43 43 43 43 43 43 43 43 43 43 0
1 43 43 43 43 44 44 44 44 44 44 44 44 44 44 0
1 44 44 44 44 44 44 44 44 44 44 44 44 44 44 0
1 44 44 44 44 44 44 45 45 45 45 45 45 45 45 0
1 45 45 45 45 45 45 45 45 45 45 45 45 45 45 0
1 45 45 45 45 46 46 46 46 46 46 46 46 46 46 0
1 46 46 46 46 46 46 46 46 46 46 46 46 46 46 0
1 46 46 46 46 46 47 47 47 47 47 47 47 47 47 0
1 47 47 47 47 47 47 47 47 47 47 47 47 47 47 0
1 47 47 47 48 48 48 48 48 48 48 48 48 48 48 0
1 48 48 48 48 48 48 48 48 48 48 48 48 48 48 0
1 49 49 49 49 49 49 49 49 49 49 49 49 49 49 0
1 49 49 49 49 49 49 49 49 49 49 50 50 50 50 0
1 50 50 50 50 50 50 50 50 50 50 50 50 50 50 0
1 50 50 50 50 50 50 50 51 51 51 51 51 51 51 0
1 51 51 51 51 51 51 51 51 51 51 51 51 51 51 0
1 51 51 51 51 51 51 51 51 52 52 52 52 52 52 0
1 52 52 52 52 52 52 52 52 52 52 52 52 52 52 0
1 52 52 52 52 52 52 53 53 53 53 53 53 53 53 0
1 53 53 53 53 53 53 53 53 53 53 53 53 53 53 0
1 53 53 53 53 53 53 53 53 53 54 54 54 54 54 0
1 54 54 54 54 54 54 54 54 54 54 54 54 54 54 0
1 54 54 54 54 54 54 54 54 54 54 54 54 54 54 0
1 55 55 55 55 55 55 55 55 55 55 55 55 55 55 0
1 55 55 55 55 55 55 55 55 55 55 55 55 56 56 0
1 56 56 56 56 56 56 56 56 56 56 56 56 56 56 0
1 56 56 56 56 56 56 56 56 56 56 56 56 56 56 0
1 56 57 57 57 57 57 57 57 57 57 57 57 57 57 0
1 57 57 57 57 57 57 57 57 57 57 57 57 57 57 0
1 57 57 57 57 57 57 58 58 58 58 58 58 58 58 0
1 58 58 58 58 58 58 58 58 58 58 58 58 59 59 0
1 59 59 59 59 59 59 59 59 59 59 59 59 59 59 0
1 59 59 59 59 59 59 59 59 59 59 59 59 59 59 0
1 59 59 59 59 59 59 59 59 59 59 59 60 60 60 0
1 60 60 60 60 60 60 60 60 60 60 60 60 60 60 0
1 60 60 60 60 60 60 60 61 61 61 61 61 61 61 0
1 61 61 61 61 61 61 61 61 61 61 61 61 61 61 0
1 61 61 61 61 61 61 61 62 62 62 62 62 62 62 0
1 62 62 62 62 62 62 62 62 62 62 62 62 62 62 0
1 62 62 62 62 62 62 62 63 63 63 63 63 63 63 0
1 63 63 63 63 63 63 63 63 63 63 63 63 63 63 0
1 63 63 63 63 64 64 64 64 64 64 64 64 64 64 0
1 64 64 64 64 64 64 64 64 64 64 64 64 64 65 0
1 65 65 65 65 65 65 65 65 65 65 65 65 65 65 0
1 65 65 65 65 65 65 65 65 65 66 66 66 66 66 0
1 66 66 66 66 66 66 66 66 66 66 66 66 66 66 0
1 66 66 66 66 67 67 67 67 67 67 67 67 67 67 0
1 67 67 67 67 67 67 67 67 67 67 67 67 67 67 0
1 67 67 68 68 68 68 68 68 68 68 68 68 68 68 0
1 68 68 68 68 68 68 68 68 68 68 68 68 68 68 0
1 68 68 68 68 68 69 69 69 69 69 69 69 69 69 0
1 69 69 69 69 69 69 69 69 69 69 69 69 69 69 0
1 70 70 70 70 70 70 70 70 70 70 70 70 70 70 0
1 70 70 70 70 70 70 70 70 70 70 70 70 70 70 0
1 70 70 70 70 70 70 70 70 71 71 71 71 71 71 0
1 71 71 71 71 71 71 71 71 71 71 71 71 71 71 0
1 71 71 71 71 71 71 71 71 71 71 71 71 71 72 0
1 72 72 72 72 72 72 72 72 72 72 72 72 72 72 0
1 72 72 72 72 73 73 73 73 73 73 73 73 73 73 0
1 73 73 73 73 73 73 73 73 73 73 73 73 73 74 0
1 74 74 74 74 74 74 74 74 74 74 74 74 74 74 0
1 74 74 74 74 74 74 74 74 74 74 74 75 75 75 0
1 75 75 75 75 75 75 75 75 75 75 75 75 75 75 0
1 75 75 75 75 75 75 75 75 75 75 75 75 75 75 0
1 75 75 75 76 76 76 76 76 76 76 76 76 76 76 0
1 76 76 76 76 76 76 76 76 76 76 76 76 76 76 0
1 77 77 77 77 77 77 77 77 77 77 77 77 77 77 0
1 77 77 77 77 77 77 77 77 77 77 77 77 78 78 0
1 78 78 78 78 78 78 78 78 78 78 78 78 78 78 0
1 78 78 78 78 78 78 78 78 78 78 78 78 78 79 0
1 79 79 79 79 79 79 79 79 79 79 79 79 79 79 0
1 79 79 79 79 79 79 79 79 79 79 79 79 79 79 0
1 80 80 80 80 80 80 80 80 80 80 80 80 80 80 0
1 80 80 80 80 80 80 80 80 80 80 80 80 81 81 0
1 81 81 81 81 81 81 81 81 81 81 81 81 81 81 0
1 81 81 81 81 81 81 81 81 81 81 81 82 82 82 0
1 82 82 82 82 82 82 82 82 82 82 82 82 82 82 0
1 82 82 82 82 82 82 82 83 83 83 83 83 83 83 0
1 83 83 83 83 83 83 83 83 83 83 83 83 83 83 0
1 83 84 84 84 84 84 84 84 84 84 84 84 84 84 0
1 84 84 84 84 84 84 84 84 84 84 84 84 85 85 0
1 85 85 85 85 85 85 85 85 85 85 85 85 85 85 0
1 85 85 85 85 85 85 85 85 85 85 85 86 86 86 0
1 86 86 86 86 86 86 86 86 86 86 86 86 86 86 0
1 86 86 86 86 86 86 86 86 86 86 86 86 86 86 0
1 86 86 87 87 87 87 87 87 87 87 87 87 87 87 0
1 87 87 87 87 87 87 87 87 87 87 87 87 87 87 0
1 87 87 87 87 88 88 88 88 88 88 88 88 88 88 0
1 88 88 88 88 88 88 88 88 88 88 88 88 88 88 0
1 88 88 88 88 88 88 88 88 88 89 89 89 89 89 0
1 89 89 89 89 89 89 89 89 89 89 89 89 89 89 0
1 89 89 89 89 89 89 90 90 90 90 90 90 90 90 0
1 90 90 90 90 90 90 90 90 90 90 90 90 90 90 0
1 90 90 90 91 91 91 91 91 91 91 91 91 91 91 0
1 91 91 91 91 91 91 91 91 91 91 91 91 91 91 0
1 91 91 91 91 91 91 91 91 91 91 91 91 91 91 0
1 92 92 92 92 92 92 92 92 92 92 92 92 92 92 0
1 92 92 92 92 92 92 92 92 92 92 92 92 93 93 0
1 93 93 93 93 93 93 93 93 93 93 93 93 93 93 0
1 93 93 93 93 93 93 93 93 93 93 93 93 93 93 0
1 94 94 94 94 94 94 94 94 94 94 94 94 94 94 0
1 94 94 94 94 94 94 94 94 94 94 94 94 94 94 0
1 95 95 95 95 95 95 95 95 95 95 95 95 95 95 0
1 95 95 95 95 95 95 95 95 96 96 96 96 96 96 0
1 96 96 96 96 96 96 96 96 96 96 96 96 96 96 0
1 96 96 96 96 96 96 97 97 97 97 97 97 97 97 0
1 97 97 97 97 97 97 97 97 97 97 97 97 97 97 0
1 97 97 98 98 98 98 98 98 98 98 98 98 98 98 0
1 98 98 98 98 98 98 98 98 98 98 98 98 98 98 0
1 98 99 99 99 99 99 99 99 99 99 99 99 99 99 0
1 99 99 99 99 99 99 99 99 99 99 99 99 99 99 0
1 100 100 100 100 100 100 100 100 100 100 100 100 100 100 0
1 100 100 100 100 100 100 100 100 100 100 100 100 100 100 0
1  0
1 141 164 274 291 301 339 407 413 467 609 618 637 651 652 0
1 681 730 766 823 904 926 952 1113 1178 1205 1224 1265 1301 1316 0
1 1433 1506 1558 1562 1599 1616 1618 1619 1743 1791 1814 1821 1836 1875 0
1 1961 2002 2026 2206 2324 2400 2506 2528 2571 2635 2668 2675 2736 2770 0
1 2790 2819 2846 2919 2930 2951 2985 0
1  0
1 118 142 190 213 440 505 521 579 624 633 703 856 862 925 0
1 1111 1146 1189 1218 1314 1326 1402 1427 1455 1475 1623 1686 1824 1879 0
1 1950 2001 2013 2112 2129 2160 2163 2198 2233 2238 2294 2346 2668 2712 0
1 2808 2947 2948 0
1  0
1 165 200 253 260 355 366 382 384 514 557 622 776 803 928 0
1 954 961 969 1078 1106 1153 1215 1223 1299 1317 1326 1353 1472 1476 0
1 1533 1620 1624 1656 1694 1745 1781 1794 1902 1915 1967 1988 2002 2066 0
1 2130 2210 2353 2554 2564 2637 2723 2737 2754 2765 2767 2807 2886 2909 0
1 2943 0
1  0
1 167 228 328 353 359 373 426 474 525 526 625 705 730 758 0
1 810 855 863 899 923 948 957 975 997 1018 1110 1179 1348 1410 0
1 1455 1464 1648 1680 1691 1776 1894 2013 2029 2053 2096 2275 2298 2340 0
1 2348 2442 2446 2494 2526 2550 2662 2690 2719 2733 2808 2833 2920 2924 0
1  0
1  0
1 38 56 208 245 286 353 363 435 471 564 619 678 710 737 0
1 764 802 845 867 936 1019 1028 1057 1063 1066 1070 1085 1096 1128 0
1 1308 1323 1331 1391 1431 1653 1714 1784 1785 1820 1914 2048 2111 2156 0
1 2362 2387 2619 2646 2661 2665 2685 2703 2748 2756 2860 2875 2888 0
1  0
1 120 199 220 309 332 378 416 514 558 600 690 726 732 735 0
1 782 783 935 990 1055 1084 1124 1322 1350 1391 1457 1498 1563 1663 0
1 1733 1759 1790 1817 1860 2039 2116 2208 2219 2260 2280 2325 2367 2398 0
1 2536 2563 2661 2678 2776 2795 2854 2972 0
1  0
1 39 107 119 358 376 380 434 438 472 475 583 593 641 748 0
1 855 895 917 942 946 1015 1038 1078 1101 1126 1135 1184 1224 1287 0
1 1307 1311 1389 1446 1478 1540 1665 1803 1860 1973 2037 2046 2214 2256 0
1 2526 2534 2538 2633 2861 2891 2958 0
1  0
1 128 185 209 224 304 363 446 471 645 714 760 789 872 897 0
1 951 991 1017 1032 1035 1042 1217 1221 1238 1281 1383 1396 1456 1503 0
1 1594 1635 1651 1784 1821 1824 1835 1839 1871 1872 1972 2021 2042 2067 0
1 2095 2102 2141 2157 2169 2202 2205 2212 2557 2621 2623 2629 2643 2753 0
1 2808 2818 2860 2928 0
1  0
1 174 337 349 398 407 422 532 565 669 709 825 839 843 923 0
1 980 987 1025 1044 1097 1139 1164 1191 1197 1249 1257 1287 1288 1298 0
1 1433 1465 1504 1513 1515 1634 1669 1714 1770 1823 1956 1965 2076 2169 0
1 2277 2365 2449 2470 2632 2876 2889 2919 2985 2997 0
1  0
1 46 64 94 168 196 219 227 252 284 331 340 426 442 523 0
1 647 674 759 771 774 794 848 860 890 959 971 987 990 1020 0
1 1073 1088 1112 1114 1160 1191 1226 1246 1297 1298 1366 1380 1389 1417 0
1 1442 1443 1520 1530 1531 1623 1645 1731 1778 1832 1839 1916 2076 2086 0
1 2179 2213 2311 2371 2474 2499 2554 2559 2560 2722 2737 2813 2961 2971 0
1  0
1 76 164 189 204 476 552 580 625 642 683 713 766 839 855 0
1 929 937 965 1006 1008 1075 1094 1130 1180 1473 1506 1585 1616 1684 0
1 1813 1856 1958 2012 2105 2138 2164 2183 2189 2233 2326 2338 2364 2425 0
1 2449 2527 2638 2709 2753 2812 2884 2916 2919 0
1  0
1 36 175 220 291 429 439 526 557 582 606 682 684 721 865 0
1 903 906 951 1078 1080 1090 1151 1217 1241 1287 1291 1294 1374 1499 0
1 1622 1673 1756 1780 1859 1873 1950 1993 2063 2093 2157 2337 2392 2516 0
1 2585 2664 2665 2696 2752 2760 2815 2824 2890 2895 2933 2948 0
1  0
1 75 201 219 231 240 298 309 324 421 462 467 470 499 554 0
1 614 629 654 862 904 917 1066 1102 1119 1145 1196 1212 1236 1424 0
1 1557 1674 1715 1716 1722 1726 1739 1773 1814 1829 1877 1939 1951 2006 0
1 2088 2089 2090 2175 2185 2213 2240 2298 2309 2415 2420 2451 2453 2515 0
1 2585 2618 2634 2658 2731 2871 2873 2879 2894 2922 2926 0
1  0
1 116 118 323 375 445 473 533 534 613 754 800 887 888 933 0
1 1023 1127 1222 1263 1387 1394 1439 1449 1590 1606 1710 1714 1782 1854 0
1 2034 2087 2116 2162 2185 2239 2272 2280 2355 2371 2512 2513 2594 2635 0
1 2698 2711 2744 2782 2801 2838 2861 2876 2921 2954 2957 0
1  0
1 195 265 303 320 325 394 418 439 510 564 571 628 690 726 0
1 780 837 862 949 987 1065 1102 1214 1283 1376 1392 1396 1529 1533 0
1 1668 1684 1779 1827 1849 2057 2080 2095 2117 2165 2182 2219 2350 2410 0
1 2481 2535 2605 2776 2840 2850 2902 3000 0
1  0
1 22 105 201 318 335 370 674 677 700 758 780 828 872 1015 0
1 1211 1250 1313 1446 1563 1579 1584 1628 1647 1659 1660 1676 1713 1787 0
1 1798 1916 1942 1948 1963 2009 2060 2088 2181 2274 2432 2484 2502 2511 0
1 2632 2713 2725 2817 2836 0
1  0
1 75 142 150 290 292 417 434 468 469 471 482 602 645 689 0
1 868 926 941 1066 1113 1144 1148 1151 1175 1176 1237 1329 1332 1441 0
1 1464 1482 1488 1574 1590 1686 1748 1788 1792 1852 1869 1899 1903 1910 0
1 1967 2005 2133 2145 2168 2220 2222 2428 2498 2520 2616 2657 2658 2711 0
1 2773 2878 2915 2948 2981 0
1  0
1 13 109 141 192 207 211 256 514 557 745 890 899 964 981 0
1 1038 1155 1256 1326 1386 1417 1456 1459 1530 1591 1741 1758 1817 1869 0
1 2029 2072 2101 2160 2178 2193 2223 2234 2331 2359 2397 2433 2510 2605 0
1 2736 2765 2776 2843 2873 2892 2985 2987 0
1  0
1 61 143 275 303 304 319 398 646 647 652 666 726 732 760 0
1 777 833 1011 1039 1062 1186 1201 1272 1330 1361 1389 1398 1418 1428 0
1 1525 1528 1555 1564 1584 1586 1587 1589 1593 1652 1725 1850 1905 1961 0
